\* Extracción_Minera *\
Minimize
Costos_Totales: 16 x_1 + 8 x_10 + 15 x_11 + 8 x_12 + 10 x_13 + 20 x_14
 + 6 x_15 + 17 x_16 + 6 x_17 + 20 x_18 + 5 x_19 + 6 x_2 + 8 x_20 + 25 x_21
 + 11 x_22 + 8 x_23 + 7 x_24 + 7 x_25 + 28 x_26 + 26 x_27 + 27 x_28 + 9 x_29
 + 11 x_3 + 24 x_30 + 15 x_31 + 14 x_32 + 22 x_33 + 20 x_34 + 19 x_35 + 8 x_36
 + 8 x_4 + 5 x_5 + 25 x_6 + 16 x_7 + 17 x_8 + 25 x_9 + 240 y_1 + 411 y_10
 + 341 y_11 + 469 y_12 + 402 y_13 + 186 y_14 + 404 y_15 + 344 y_16 + 290 y_17
 + 340 y_18 + 482 y_19 + 155 y_2 + 472 y_20 + 394 y_21 + 102 y_22 + 330 y_23
 + 433 y_24 + 205 y_25 + 394 y_26 + 156 y_27 + 298 y_28 + 134 y_29 + 240 y_3
 + 462 y_30 + 432 y_31 + 362 y_32 + 127 y_33 + 203 y_34 + 417 y_35 + 215 y_36
 + 125 y_4 + 177 y_5 + 342 y_6 + 157 y_7 + 457 y_8 + 396 y_9
Subject To
Maximo_toneladas_de_extracción_si_se_decide_explotar_la_zona_1: x_1 - 189 y_1
 <= 0
Maximo_toneladas_de_extracción_si_se_decide_explotar_la_zona_10: x_10
 - 122 y_10 <= 0
Maximo_toneladas_de_extracción_si_se_decide_explotar_la_zona_11: x_11
 - 146 y_11 <= 0
Maximo_toneladas_de_extracción_si_se_decide_explotar_la_zona_12: x_12
 - 190 y_12 <= 0
Maximo_toneladas_de_extracción_si_se_decide_explotar_la_zona_13: x_13
 - 160 y_13 <= 0
Maximo_toneladas_de_extracción_si_se_decide_explotar_la_zona_14: x_14
 - 109 y_14 <= 0
Maximo_toneladas_de_extracción_si_se_decide_explotar_la_zona_15: x_15
 - 133 y_15 <= 0
Maximo_toneladas_de_extracción_si_se_decide_explotar_la_zona_16: x_16
 - 198 y_16 <= 0
Maximo_toneladas_de_extracción_si_se_decide_explotar_la_zona_17: x_17
 - 138 y_17 <= 0
Maximo_toneladas_de_extracción_si_se_decide_explotar_la_zona_18: x_18
 - 107 y_18 <= 0
Maximo_toneladas_de_extracción_si_se_decide_explotar_la_zona_19: x_19
 - 117 y_19 <= 0
Maximo_toneladas_de_extracción_si_se_decide_explotar_la_zona_2: x_2 - 196 y_2
 <= 0
Maximo_toneladas_de_extracción_si_se_decide_explotar_la_zona_20: x_20
 - 150 y_20 <= 0
Maximo_toneladas_de_extracción_si_se_decide_explotar_la_zona_21: x_21
 - 171 y_21 <= 0
Maximo_toneladas_de_extracción_si_se_decide_explotar_la_zona_22: x_22
 - 103 y_22 <= 0
Maximo_toneladas_de_extracción_si_se_decide_explotar_la_zona_23: x_23
 - 157 y_23 <= 0
Maximo_toneladas_de_extracción_si_se_decide_explotar_la_zona_24: x_24
 - 143 y_24 <= 0
Maximo_toneladas_de_extracción_si_se_decide_explotar_la_zona_25: x_25
 - 170 y_25 <= 0
Maximo_toneladas_de_extracción_si_se_decide_explotar_la_zona_26: x_26
 - 130 y_26 <= 0
Maximo_toneladas_de_extracción_si_se_decide_explotar_la_zona_27: x_27
 - 140 y_27 <= 0
Maximo_toneladas_de_extracción_si_se_decide_explotar_la_zona_28: x_28
 - 126 y_28 <= 0
Maximo_toneladas_de_extracción_si_se_decide_explotar_la_zona_29: x_29
 - 180 y_29 <= 0
Maximo_toneladas_de_extracción_si_se_decide_explotar_la_zona_3: x_3 - 143 y_3
 <= 0
Maximo_toneladas_de_extracción_si_se_decide_explotar_la_zona_30: x_30
 - 153 y_30 <= 0
Maximo_toneladas_de_extracción_si_se_decide_explotar_la_zona_31: x_31
 - 108 y_31 <= 0
Maximo_toneladas_de_extracción_si_se_decide_explotar_la_zona_32: x_32
 - 132 y_32 <= 0
Maximo_toneladas_de_extracción_si_se_decide_explotar_la_zona_33: x_33
 - 105 y_33 <= 0
Maximo_toneladas_de_extracción_si_se_decide_explotar_la_zona_34: x_34
 - 145 y_34 <= 0
Maximo_toneladas_de_extracción_si_se_decide_explotar_la_zona_35: x_35
 - 145 y_35 <= 0
Maximo_toneladas_de_extracción_si_se_decide_explotar_la_zona_36: x_36
 - 114 y_36 <= 0
Maximo_toneladas_de_extracción_si_se_decide_explotar_la_zona_4: x_4 - 136 y_4
 <= 0
Maximo_toneladas_de_extracción_si_se_decide_explotar_la_zona_5: x_5 - 106 y_5
 <= 0
Maximo_toneladas_de_extracción_si_se_decide_explotar_la_zona_6: x_6 - 151 y_6
 <= 0
Maximo_toneladas_de_extracción_si_se_decide_explotar_la_zona_7: x_7 - 170 y_7
 <= 0
Maximo_toneladas_de_extracción_si_se_decide_explotar_la_zona_8: x_8 - 129 y_8
 <= 0
Maximo_toneladas_de_extracción_si_se_decide_explotar_la_zona_9: x_9 - 184 y_9
 <= 0
Mínimo_toneladas_de_extracción_del_tipo_de_carbón_Antracita: x_10 + x_13
 + x_19 + x_22 + x_23 + x_24 + x_25 + x_34 + x_36 + x_9 >= 862
Mínimo_toneladas_de_extracción_del_tipo_de_carbón_Hulla: x_1 + x_11 + x_16
 + x_17 + x_2 + x_31 + x_33 + x_5 + x_7 + x_8 >= 898
Mínimo_toneladas_de_extracción_del_tipo_de_carbón_Lignito: x_20 + x_28 + x_29
 + x_30 + x_35 >= 742
Mínimo_toneladas_de_extracción_del_tipo_de_carbón_Turba: x_12 + x_14 + x_15
 + x_18 + x_21 + x_26 + x_27 + x_3 + x_32 + x_4 + x_6 >= 562
Binaries
y_1
y_10
y_11
y_12
y_13
y_14
y_15
y_16
y_17
y_18
y_19
y_2
y_20
y_21
y_22
y_23
y_24
y_25
y_26
y_27
y_28
y_29
y_3
y_30
y_31
y_32
y_33
y_34
y_35
y_36
y_4
y_5
y_6
y_7
y_8
y_9
End
